50
    37    46    33    17    52    53    31    82     2    61    22    27    46     1    62    41    62    44    73     1    39    99    42    76    85    20    20    25    24    97    27   100    93    65    45    40    46    96    24    77    53     5    79    32    99    46    91    20    86    16
     9     2     1     2     5     7     4     5     2     4    10    10     1     1     8     2     8     7     9     2     3     3    10    10     3     3     1     2     5     2     1    10     7    10     8     5     5     5    10     4     6    10     3     2     7    10     7     1     2     2
  1519  2100  1877  1502  1759  2233  1954  1790  1801  2426  2371  2069  2074  2349  1699  2148  2004  1731  2009  1636  1764  1684  2014  2003  1567  1595  1528  2237  2436  2417  1500  1897  1560  1597  1577  1690  1917  2268  2112  1602  1730  2271  1726  2459  2122  2369  2266  2090  1487  2152
